(set-logic QF_LRA)
(declare-fun X0 () Real )
(declare-fun Y0 () Real )
(declare-fun X1 () Real )
(declare-fun Y1 () Real )
(declare-fun X2 () Real )
(declare-fun Y2 () Real )
(declare-fun X3 () Real )
(declare-fun Y3 () Real )
(declare-fun X4 () Real )
(declare-fun Y4 () Real )
(declare-fun X5 () Real )
(declare-fun Y5 () Real )
(declare-fun Z () Real )
(declare-fun k () Real )
(assert (let
(( $goal (>= Z k) ))
(let
((
$phi ( and 
( or ( <= ( + X0 31 ) X1 )  ( <= ( + X1 16 ) X0 )  ( <= ( + Y0 49 ) Y1 )  ( <= ( + Y1 91 ) Y0 )  )
( or ( <= ( + X0 31 ) X2 )  ( <= ( + X2 91 ) X0 )  ( <= ( + Y0 49 ) Y2 )  ( <= ( + Y2 59 ) Y0 )  )
( or ( <= ( + X0 31 ) X3 )  ( <= ( + X3 19 ) X0 )  ( <= ( + Y0 49 ) Y3 )  ( <= ( + Y3 82 ) Y0 )  )
( or ( <= ( + X0 31 ) X4 )  ( <= ( + X4 74 ) X0 )  ( <= ( + Y0 49 ) Y4 )  ( <= ( + Y4 61 ) Y0 )  )
( or ( <= ( + X0 31 ) X5 )  ( <= ( + X5 31 ) X0 )  ( <= ( + Y0 49 ) Y5 )  ( <= ( + Y5 90 ) Y0 )  )
( or ( <= ( + X1 16 ) X2 )  ( <= ( + X2 91 ) X1 )  ( <= ( + Y1 91 ) Y2 )  ( <= ( + Y2 59 ) Y1 )  )
( or ( <= ( + X1 16 ) X3 )  ( <= ( + X3 19 ) X1 )  ( <= ( + Y1 91 ) Y3 )  ( <= ( + Y3 82 ) Y1 )  )
( or ( <= ( + X1 16 ) X4 )  ( <= ( + X4 74 ) X1 )  ( <= ( + Y1 91 ) Y4 )  ( <= ( + Y4 61 ) Y1 )  )
( or ( <= ( + X1 16 ) X5 )  ( <= ( + X5 31 ) X1 )  ( <= ( + Y1 91 ) Y5 )  ( <= ( + Y5 90 ) Y1 )  )
( or ( <= ( + X2 91 ) X3 )  ( <= ( + X3 19 ) X2 )  ( <= ( + Y2 59 ) Y3 )  ( <= ( + Y3 82 ) Y2 )  )
( or ( <= ( + X2 91 ) X4 )  ( <= ( + X4 74 ) X2 )  ( <= ( + Y2 59 ) Y4 )  ( <= ( + Y4 61 ) Y2 )  )
( or ( <= ( + X2 91 ) X5 )  ( <= ( + X5 31 ) X2 )  ( <= ( + Y2 59 ) Y5 )  ( <= ( + Y5 90 ) Y2 )  )
( or ( <= ( + X3 19 ) X4 )  ( <= ( + X4 74 ) X3 )  ( <= ( + Y3 82 ) Y4 )  ( <= ( + Y4 61 ) Y3 )  )
( or ( <= ( + X3 19 ) X5 )  ( <= ( + X5 31 ) X3 )  ( <= ( + Y3 82 ) Y5 )  ( <= ( + Y5 90 ) Y3 )  )
( or ( <= ( + X4 74 ) X5 )  ( <= ( + X5 31 ) X4 )  ( <= ( + Y4 61 ) Y5 )  ( <= ( + Y5 90 ) Y4 )  )
( >= X0 0)
( <= ( + X0 31) Z)
( >= Y0 0)
( <= ( + Y0 49 ) 100)
( >= X1 0)
( <= ( + X1 16) Z)
( >= Y1 0)
( <= ( + Y1 91 ) 100)
( >= X2 0)
( <= ( + X2 91) Z)
( >= Y2 0)
( <= ( + Y2 59 ) 100)
( >= X3 0)
( <= ( + X3 19) Z)
( >= Y3 0)
( <= ( + Y3 82 ) 100)
( >= X4 0)
( <= ( + X4 74) Z)
( >= Y4 0)
( <= ( + Y4 61 ) 100)
( >= X5 0)
( <= ( + X5 31) Z)
( >= Y5 0)
( <= ( + Y5 90 ) 100)
) )
)(=> $phi $goal))))